1 -1 2 0
1 -1 -3 0
1 1 4 0
1 -1 5 0
1 2 4 0
1 -2 -6 0
1 2 -5 0
1 -7 -8 0
1 7 -9 0
1 7 3 0
1 -7 -4 0
1 -7 -10 0
1 7 11 0
1 7 5 0
1 -9 -3 0
1 -9 -4 0
1 -9 10 0
1 -9 11 0
1 4 -12 0
1 4 -13 0
1 4 -9 0
1 4 2 0
1 4 -14 0
1 4 -15 0
1 -4 16 0
1 -4 7 0
1 -4 5 0
1 -5 -17 0
1 -5 2 0
1 -5 -4 0
1 5 16 0
1 -5 1 0
1 -3 12 0
1 -3 -18 0
1 -3 2 0
1 -3 -19 0
1 -3 14 0
1 3 -20 0
1 3 -7 0
1 3 1 0
1 6 12 0
1 -6 18 0
1 -6 21 0
1 6 -9 0
1 6 -3 0
1 6 22 0
1 -6 1 0
1 -16 -8 0
1 -16 23 0
1 16 24 0
1 -16 -10 0
1 -16 -11 0
1 16 22 0
1 16 -5 0
1 -24 -23 0
1 24 21 0
1 24 4 0
1 24 -10 0
1 -24 -11 0
1 24 16 0
1 24 5 0
1 15 -8 0
1 15 -23 0
1 15 13 0
1 15 25 0
1 -15 4 0
1 15 10 0
1 15 26 0
1 15 -20 0
1 15 27 0
1 -13 23 0
1 -13 -25 0
1 -13 18 0
1 -13 -4 0
1 13 10 0
1 -13 11 0
1 -13 -15 0
1 -13 26 0
1 13 27 0
1 13 5 0
1 -11 28 0
1 -11 23 0
1 -11 24 0
1 -11 -29 0
1 11 -30 0
1 -11 31 0
1 11 -16 0
1 -11 -7 0
1 -11 32 0
1 23 28 0
1 -23 13 0
1 23 24 0
1 -23 -9 0
1 -23 29 0
1 23 -30 0
1 23 15 0
1 23 7 0
1 23 32 0
1 10 8 0
1 10 33 0
1 10 12 0
1 -10 -13 0
1 10 -24 0
1 10 29 0
1 10 34 0
1 10 -15 0
1 8 -33 0
1 -8 -12 0
1 8 24 0
1 -8 -10 0
1 8 34 0
1 -8 14 0
1 -8 15 0
1 -8 -16 0
1 8 -7 0
1 -31 -35 0
1 31 -23 0
1 -31 25 0
1 31 36 0
1 31 -11 0
1 31 -14 0
1 31 -27 0
1 -35 -12 0
1 35 25 0
1 -35 36 0
1 -35 -31 0
1 -35 11 0
1 -35 26 0
1 35 -27 0
1 -30 -23 0
1 -30 -25 0
1 30 -36 0
1 -30 -34 0
1 -30 11 0
1 -30 -27 0
1 -28 33 0
1 28 -23 0
1 28 25 0
1 28 36 0
1 -28 -30 0
1 28 -11 0
1 -28 26 0
1 -28 27 0
1 -27 -28 0
1 -27 -35 0
1 27 -36 0
1 -27 -30 0
1 27 -31 0
1 -27 -15 0
1 -36 28 0
1 36 35 0
1 -36 -30 0
1 36 31 0
1 -26 28 0
1 -26 13 0
1 26 25 0
1 26 -29 0
1 26 -30 0
1 -26 15 0
1 -25 -28 0
1 -25 -35 0
1 -25 -37 0
1 -25 29 0
1 -25 30 0
1 25 15 0
1 25 26 0
1 22 -21 0
1 -22 38 0
1 -22 -3 0
1 -22 39 0
1 22 40 0
1 -22 -16 0
1 -21 41 0
1 -21 -24 0
1 21 -38 0
1 -21 -3 0
1 -21 39 0
1 21 40 0
1 -21 -22 0
1 -21 6 0
1 20 -41 0
1 -20 -38 0
1 -20 -39 0
1 -20 15 0
1 20 40 0
1 20 -42 0
1 20 -43 0
1 -20 6 0
1 18 40 0
1 -18 -41 0
1 -18 -38 0
1 18 44 0
1 -18 -3 0
1 -18 39 0
1 -18 42 0
1 18 -43 0
1 18 6 0
1 -38 -40 0
1 38 33 0
1 -38 -12 0
1 38 -18 0
1 38 21 0
1 -38 34 0
1 38 -14 0
1 40 -33 0
1 40 12 0
1 -40 -18 0
1 -40 21 0
1 -40 -38 0
1 -40 14 0
1 -40 -20 0
1 40 22 0
1 41 18 0
1 41 21 0
1 41 39 0
1 41 20 0
1 41 22 0
1 -39 18 0
1 -39 -41 0
1 39 21 0
1 39 -20 0
1 -39 -22 0
1 14 8 0
1 -14 38 0
1 14 -44 0
1 14 45 0
1 -14 3 0
1 14 10 0
1 -14 31 0
1 14 42 0
1 14 -43 0
1 14 6 0
1 -14 -5 0
1 -12 -8 0
1 -12 35 0
1 -12 -44 0
1 12 4 0
1 12 -14 0
1 12 40 0
1 12 42 0
1 -12 6 0
1 12 -5 0
1 -34 17 0
1 -34 8 0
1 -34 -33 0
1 -34 38 0
1 -34 44 0
1 -34 -45 0
1 34 -19 0
1 34 -46 0
1 34 10 0
1 34 30 0
1 34 -40 0
1 34 -42 0
1 -33 17 0
1 33 -28 0
1 33 -44 0
1 33 45 0
1 33 19 0
1 -33 10 0
1 -33 34 0
1 33 40 0
1 33 -42 0
1 -33 47 0
1 45 33 0
1 45 -12 0
1 45 18 0
1 -45 -29 0
1 45 -34 0
1 45 14 0
1 -45 -20 0
1 45 -43 0
1 -45 -48 0
1 45 -32 0
1 -43 -12 0
1 -43 -18 0
1 43 -45 0
1 43 29 0
1 -43 -34 0
1 43 -20 0
1 -43 -48 0
1 -43 32 0
1 44 -12 0
1 44 -18 0
1 -44 -20 0
1 -44 -42 0
1 42 -33 0
1 -42 -12 0
1 -42 18 0
1 42 20 0
1 29 -25 0
1 -29 -46 0
1 -29 -11 0
1 -29 -43 0
1 29 47 0
1 -32 17 0
1 32 23 0
1 32 25 0
1 -32 -45 0
1 -32 -29 0
1 -32 10 0
1 -32 -43 0
1 -37 17 0
1 37 -25 0
1 37 46 0
1 37 43 0
1 37 -48 0
1 37 47 0
1 48 -25 0
1 -48 -45 0
1 -48 -19 0
1 -48 26 0
1 -48 43 0
1 -46 -17 0
1 46 -33 0
1 46 37 0
1 46 -29 0
1 46 48 0
1 -46 32 0
1 -17 -33 0
1 -17 -37 0
1 -17 29 0
1 17 -46 0
1 17 34 0
1 -17 -5 0
1 -19 -33 0
1 19 -3 0
1 -19 -47 0
1 19 -32 0
1 -47 33 0
1 -47 37 0
1 47 -29 0
1 -47 -34 0
1 -47 6 0
1 47 -48 0
1 -47 32 0
